; PUSH cw_0 ADD POP => POP
(set-option :produce-proofs true)
; 
(set-info :status unknown)
(declare-fun storage_t ((_ BitVec 256) (_ BitVec 256) Int (_ BitVec 256)) (_ BitVec 256))
(declare-fun w_0 () (_ BitVec 256))
(declare-fun storage_s ((_ BitVec 256) (_ BitVec 256) Int (_ BitVec 256)) (_ BitVec 256))
(declare-fun exc_halt_t (Int) Bool)
(declare-fun exc_halt_s (Int) Bool)
(declare-fun stack_t ((_ BitVec 256) (_ BitVec 256) Int (_ BitVec 6)) (_ BitVec 256))
(declare-fun stack_s ((_ BitVec 256) (_ BitVec 256) Int (_ BitVec 6)) (_ BitVec 256))
(declare-fun sc_t (Int) (_ BitVec 6))
(declare-fun sc_s (Int) (_ BitVec 6))
(declare-fun used_gas_t ((_ BitVec 256) (_ BitVec 256) Int) Int)
(declare-fun used_gas_s ((_ BitVec 256) (_ BitVec 256) Int) Int)
(assert
 (exists ((x_0 (_ BitVec 256)) )(let (($x7827 (forall ((w (_ BitVec 256)) )(let ((?x1536 (storage_t x_0 w_0 1 w)))
 (let ((?x7894 (storage_s x_0 w_0 3 w)))
 (= ?x7894 ?x1536))))
 ))
 (let (($x8377 (exc_halt_t 1)))
 (let (($x292 (exc_halt_s 3)))
 (let (($x5738 (= $x292 $x8377)))
 (let (($x3786 (forall ((n (_ BitVec 6)) )(let ((?x7940 (stack_t x_0 w_0 1 n)))
 (let ((?x333 (stack_s x_0 w_0 3 n)))
 (let (($x7061 (= ?x333 ?x7940)))
 (let ((?x7154 (sc_t 1)))
 (let (($x6686 (bvsle ?x7154 n)))
 (or $x6686 $x7061)))))))
 ))
 (let ((?x7154 (sc_t 1)))
 (let ((?x275 (sc_s 3)))
 (let (($x1265 (= ?x275 ?x7154)))
 (let ((?x619 (used_gas_t x_0 w_0 0)))
 (let ((?x5692 (used_gas_s x_0 w_0 0)))
 (let (($x1873 (= ?x5692 ?x619)))
 (let (($x3042 (forall ((w (_ BitVec 256)) )(let ((?x4752 (storage_t x_0 w_0 0 w)))
 (let ((?x10763 (storage_s x_0 w_0 0 w)))
 (= ?x10763 ?x4752))))
 ))
 (let (($x56 (exc_halt_t 0)))
 (let (($x57 (exc_halt_s 0)))
 (let (($x58 (= $x57 $x56)))
 (let (($x2595 (forall ((n (_ BitVec 6)) )(let ((?x11347 (stack_t x_0 w_0 0 n)))
 (let ((?x9094 (stack_s x_0 w_0 0 n)))
 (let (($x11681 (= ?x9094 ?x11347)))
 (let ((?x63 (sc_t 0)))
 (let (($x1710 (bvsle ?x63 n)))
 (or $x1710 $x11681)))))))
 ))
 (let ((?x63 (sc_t 0)))
 (let ((?x72 (sc_s 0)))
 (let (($x73 (= ?x72 ?x63)))
 (let (($x5862 (= $x8377 (or $x56 (not (bvsle (_ bv0 6) (bvadd (_ bv63 6) ?x63)))))))
 (let (($x8508 (forall ((w (_ BitVec 256)) )(let ((?x4752 (storage_t x_0 w_0 0 w)))
 (let ((?x1536 (storage_t x_0 w_0 1 w)))
 (= ?x1536 ?x4752))))
 ))
 (let (($x2216 (forall ((n (_ BitVec 6)) )(let ((?x63 (sc_t 0)))
 (let ((?x4642 (bvadd (_ bv63 6) ?x63)))
 (let (($x9385 (bvsle ?x4642 n)))
 (or (= (stack_t x_0 w_0 1 n) (stack_t x_0 w_0 0 n)) $x9385)))))
 ))
 (let (($x2177 (= $x292 (or (exc_halt_s 2) (not (bvsle (_ bv0 6) (bvadd (_ bv63 6) (sc_s 2))))))))
 (let (($x9124 (forall ((w (_ BitVec 256)) )(let ((?x6239 (storage_s x_0 w_0 2 w)))
 (let ((?x7894 (storage_s x_0 w_0 3 w)))
 (= ?x7894 ?x6239))))
 ))
 (let (($x2335 (forall ((n (_ BitVec 6)) )(let ((?x218 (sc_s 2)))
 (let ((?x9888 (bvadd (_ bv63 6) ?x218)))
 (let (($x3447 (bvsle ?x9888 n)))
 (or (= (stack_s x_0 w_0 3 n) (stack_s x_0 w_0 2 n)) $x3447)))))
 ))
 (let (($x8695 (= (used_gas_s x_0 w_0 3) (+ 2 (used_gas_s x_0 w_0 2)))))
 (let (($x247 (exc_halt_s 2)))
 (let (($x6121 (= $x247 (or (exc_halt_s 1) (not (bvsle (_ bv0 6) (bvadd (_ bv62 6) (sc_s 1))))))))
 (let (($x1569 (forall ((w (_ BitVec 256)) )(let ((?x7579 (storage_s x_0 w_0 1 w)))
 (let ((?x6239 (storage_s x_0 w_0 2 w)))
 (= ?x6239 ?x7579))))
 ))
 (let (($x4950 (forall ((n (_ BitVec 6)) )(let ((?x154 (sc_s 1)))
 (let ((?x6225 (bvadd (_ bv62 6) ?x154)))
 (let (($x6726 (bvsle ?x6225 n)))
 (or (= (stack_s x_0 w_0 2 n) (stack_s x_0 w_0 1 n)) $x6726)))))
 ))
 (let ((?x154 (sc_s 1)))
 (let ((?x3500 (bvadd (_ bv63 6) ?x154)))
 (let ((?x218 (sc_s 2)))
 (let (($x465 (= ?x218 ?x3500)))
 (let ((?x473 (used_gas_s x_0 w_0 2)))
 (let ((?x11280 (bvadd (stack_s x_0 w_0 1 ?x3500) (stack_s x_0 w_0 1 (bvadd (_ bv62 6) ?x154)))))
 (let (($x189 (exc_halt_s 1)))
 (let (($x10045 (= $x189 (or $x57 (not (= ((_ extract 6 6) (bvadd (_ bv1 7) (concat (_ bv0 1) ?x72))) (_ bv0 1)))))))
 (let (($x9901 (forall ((w (_ BitVec 256)) )(let ((?x10763 (storage_s x_0 w_0 0 w)))
 (let ((?x7579 (storage_s x_0 w_0 1 w)))
 (= ?x7579 ?x10763))))
 ))
 (let (($x10399 (forall ((n (_ BitVec 6)) )(let ((?x72 (sc_s 0)))
 (let (($x5317 (bvsle ?x72 n)))
 (or $x5317 (= (stack_s x_0 w_0 1 n) (stack_s x_0 w_0 0 n))))))
 ))
 (let (($x7319 (= ?x154 (bvadd (_ bv1 6) ?x72))))
 (let (($x10442 (forall ((w (_ BitVec 256)) )(let ((?x10763 (storage_s x_0 w_0 0 w)))
 (= ?x10763 (_ bv0 256))))
 ))
 (let (($x7086 (= ?x5692 0)))
 (let (($x1892 (not $x57)))
 (let (($x1925 (= (stack_s x_0 w_0 0 (_ bv0 6)) x_0)))
 (let (($x7865 (= ?x72 (_ bv1 6))))
 (and $x7865 $x1925 $x1892 $x7086 $x10442 (= (stack_s x_0 w_0 1 ?x72) w_0) (= (used_gas_s x_0 w_0 1) (+ 3 ?x5692)) $x7319 $x10399 $x9901 $x10045 (= (stack_s x_0 w_0 2 (bvadd (_ bv63 6) ?x218)) ?x11280) (= ?x473 (+ 3 (used_gas_s x_0 w_0 1))) $x465 $x4950 $x1569 $x6121 $x8695 (= ?x275 (bvadd (_ bv63 6) ?x218)) $x2335 $x9124 $x2177 (= (used_gas_t x_0 w_0 1) (+ 2 ?x619)) (= ?x7154 (bvadd (_ bv63 6) ?x63)) $x2216 $x8508 $x5862 $x73 $x2595 $x58 $x3042 $x1873 (not (and $x1265 $x3786 $x5738 $x7827))))))))))))))))))))))))))))))))))))))))))))))))))
 )
(check-sat)
(get-proof)
